RLW04
Position Depot: Random
Horizon for Depot: Large
Position of customers: Random
Distribution of the demand: Large
Width of time windows: Wide
Distribution of the service: Small

VEHICLE 
NUMBER 	 CAPACITY 
 7 	 	 321 
 
CUSTOMER
CUST NO. 	 XCOORD.  	 YCOORD. 	 DEMAND 	 READY TIME 	 DUE DATE 	 SERVICE TIME 
 0 	 	 460 	 	 386 	 	 0 	 	 0 	 	 3190 	 	 0 
  1 	 	 996 	 	 237 	 	 31 	 	 943 	 	 1379 	 	 85 
  2 	 	 593 	 	 398 	 	 28 	 	 1684 	 	 2016 	 	 71 
  3 	 	 508 	 	 607 	 	 15 	 	 755 	 	 995 	 	 52 
  4 	 	 15 	 	 816 	 	 1 	 	 1785 	 	 2148 	 	 74 
  5 	 	 868 	 	 594 	 	 37 	 	 600 	 	 1004 	 	 60 
  6 	 	 901 	 	 844 	 	 98 	 	 2507 	 	 2784 	 	 100 
  7 	 	 935 	 	 31 	 	 2 	 	 1449 	 	 1723 	 	 92 
  8 	 	 555 	 	 58 	 	 73 	 	 1389 	 	 1719 	 	 58 
  9 	 	 81 	 	 473 	 	 84 	 	 1138 	 	 1345 	 	 52 
  10 	 	 549 	 	 62 	 	 68 	 	 417 	 	 638 	 	 67 
  11 	 	 799 	 	 120 	 	 56 	 	 223 	 	 520 	 	 51 
  12 	 	 511 	 	 652 	 	 17 	 	 2848 	 	 3190 	 	 93 
  13 	 	 836 	 	 865 	 	 25 	 	 2500 	 	 2929 	 	 74 
  14 	 	 337 	 	 646 	 	 35 	 	 902 	 	 1226 	 	 65 
  15 	 	 61 	 	 602 	 	 76 	 	 527 	 	 906 	 	 77 
  16 	 	 619 	 	 714 	 	 72 	 	 2380 	 	 2847 	 	 53 
  17 	 	 926 	 	 361 	 	 71 	 	 1452 	 	 1927 	 	 62 
  18 	 	 728 	 	 901 	 	 69 	 	 1619 	 	 1854 	 	 95 
  19 	 	 273 	 	 761 	 	 79 	 	 2834 	 	 3071 	 	 66 
  20 	 	 181 	 	 999 	 	 13 	 	 510 	 	 740 	 	 63 
  21 	 	 875 	 	 438 	 	 6 	 	 214 	 	 460 	 	 82 
  22 	 	 480 	 	 513 	 	 48 	 	 226 	 	 586 	 	 52 
  23 	 	 129 	 	 544 	 	 5 	 	 1682 	 	 1947 	 	 75 
  24 	 	 781 	 	 724 	 	 58 	 	 44 	 	 512 	 	 67 
  25 	 	 92 	 	 256 	 	 42 	 	 174 	 	 528 	 	 52 
  26 	 	 880 	 	 393 	 	 8 	 	 2833 	 	 3166 	 	 70 
  27 	 	 752 	 	 133 	 	 34 	 	 1427 	 	 1686 	 	 93 
  28 	 	 311 	 	 96 	 	 55 	 	 776 	 	 1233 	 	 85 
  29 	 	 210 	 	 338 	 	 44 	 	 1886 	 	 2286 	 	 87 
  30 	 	 492 	 	 107 	 	 17 	 	 2457 	 	 2886 	 	 83 
  31 	 	 572 	 	 736 	 	 75 	 	 2639 	 	 3105 	 	 84 
  32 	 	 30 	 	 918 	 	 38 	 	 2904 	 	 3184 	 	 62 
  33 	 	 379 	 	 398 	 	 67 	 	 1203 	 	 1452 	 	 76 
  34 	 	 353 	 	 129 	 	 74 	 	 154 	 	 376 	 	 69 
  35 	 	 834 	 	 818 	 	 84 	 	 2005 	 	 2365 	 	 76 
  36 	 	 305 	 	 326 	 	 46 	 	 933 	 	 1299 	 	 97 
  37 	 	 766 	 	 532 	 	 65 	 	 -97 	 	 372 	 	 57 
  38 	 	 152 	 	 324 	 	 94 	 	 1149 	 	 1516 	 	 86 
  39 	 	 70 	 	 462 	 	 36 	 	 1748 	 	 2180 	 	 73 
  40 	 	 949 	 	 759 	 	 49 	 	 180 	 	 676 	 	 53 
  41 	 	 137 	 	 49 	 	 68 	 	 1768 	 	 2262 	 	 66 
  42 	 	 802 	 	 251 	 	 90 	 	 2163 	 	 2536 	 	 73 
  43 	 	 964 	 	 816 	 	 83 	 	 1313 	 	 1719 	 	 69 
  44 	 	 475 	 	 612 	 	 44 	 	 1949 	 	 2408 	 	 60 
  45 	 	 29 	 	 151 	 	 33 	 	 2657 	 	 2970 	 	 86 
  46 	 	 136 	 	 928 	 	 15 	 	 551 	 	 961 	 	 96 
  47 	 	 634 	 	 51 	 	 13 	 	 2067 	 	 2403 	 	 95 
  48 	 	 109 	 	 209 	 	 34 	 	 27 	 	 519 	 	 83 
  49 	 	 656 	 	 80 	 	 10 	 	 746 	 	 1034 	 	 82 
  50 	 	 882 	 	 442 	 	 3 	 	 2224 	 	 2612 	 	 81 
 